50
702
25
64
20
46
6
24
70
7
90
4
23
61
85
11
9
93
18
21
56
20
93
87
49
40
6
96
0 1
0 5
0 9
0 13
0 14
0 15
0 16
0 17
0 19
0 21
0 22
0 23
0 24
0 28
0 29
0 30
0 32
0 33
0 34
0 35
0 37
0 38
0 39
0 42
0 43
0 45
0 46
0 47
0 49
1 5
1 6
1 7
1 8
1 9
1 10
1 13
1 17
1 19
1 21
1 24
1 25
1 29
1 30
1 31
1 32
1 33
1 36
1 37
1 39
1 43
1 44
1 45
1 46
1 49
2 3
2 4
2 7
2 8
2 10
2 11
2 13
2 14
2 15
2 17
2 18
2 20
2 24
2 26
2 32
2 34
2 35
2 36
2 38
2 39
2 40
2 41
2 42
2 43
2 44
2 45
2 46
2 49
3 4
3 6
3 7
3 8
3 10
3 11
3 12
3 16
3 17
3 18
3 19
3 20
3 21
3 22
3 24
3 29
3 30
3 34
3 35
3 36
3 37
3 38
3 39
3 41
3 42
3 43
3 45
3 46
3 47
3 48
3 49
4 6
4 7
4 8
4 10
4 11
4 12
4 13
4 15
4 17
4 21
4 22
4 24
4 25
4 28
4 30
4 31
4 39
4 41
4 45
4 46
4 47
4 49
5 6
5 7
5 9
5 12
5 13
5 16
5 18
5 19
5 21
5 22
5 24
5 26
5 28
5 29
5 31
5 33
5 34
5 35
5 39
5 44
5 46
5 47
6 9
6 10
6 11
6 12
6 13
6 14
6 17
6 18
6 22
6 23
6 27
6 28
6 33
6 37
6 38
6 39
6 40
6 42
6 43
6 44
6 45
6 46
6 47
6 48
7 9
7 10
7 11
7 12
7 13
7 14
7 15
7 17
7 18
7 19
7 20
7 23
7 25
7 26
7 28
7 29
7 32
7 33
7 35
7 36
7 37
7 38
7 39
7 40
7 41
7 42
7 43
7 44
7 45
7 46
7 47
7 48
8 10
8 11
8 13
8 15
8 16
8 17
8 18
8 19
8 20
8 22
8 24
8 25
8 26
8 28
8 30
8 31
8 33
8 35
8 37
8 39
8 41
8 42
8 43
8 44
8 45
8 46
8 47
9 11
9 12
9 15
9 16
9 18
9 19
9 20
9 21
9 22
9 23
9 24
9 26
9 27
9 28
9 30
9 33
9 34
9 36
9 38
9 39
9 40
9 41
9 43
9 45
9 47
10 13
10 16
10 17
10 18
10 21
10 23
10 24
10 27
10 28
10 31
10 33
10 34
10 35
10 36
10 37
10 38
10 39
10 40
10 42
10 43
10 44
10 46
10 47
10 49
11 12
11 14
11 15
11 16
11 19
11 21
11 23
11 25
11 29
11 31
11 32
11 35
11 36
11 39
11 42
11 43
11 46
11 47
12 15
12 16
12 17
12 18
12 19
12 21
12 25
12 27
12 32
12 33
12 34
12 35
12 37
12 40
12 42
12 43
12 47
12 49
13 15
13 16
13 17
13 19
13 21
13 23
13 26
13 29
13 31
13 33
13 34
13 35
13 36
13 41
13 42
13 44
13 45
13 47
14 16
14 17
14 19
14 20
14 21
14 24
14 26
14 28
14 30
14 31
14 32
14 33
14 34
14 35
14 37
14 38
14 41
14 42
14 44
14 45
14 47
14 48
15 16
15 20
15 21
15 22
15 24
15 25
15 26
15 29
15 30
15 31
15 32
15 33
15 37
15 38
15 39
15 40
15 45
15 46
15 48
16 17
16 20
16 23
16 24
16 25
16 28
16 29
16 30
16 33
16 35
16 36
16 37
16 39
16 40
16 41
16 45
16 49
17 19
17 20
17 21
17 22
17 24
17 25
17 29
17 30
17 31
17 32
17 33
17 35
17 37
17 41
17 44
17 45
17 46
17 47
17 49
18 20
18 21
18 26
18 28
18 29
18 31
18 32
18 35
18 37
18 39
18 40
18 41
18 43
18 48
18 49
19 21
19 22
19 23
19 25
19 26
19 27
19 28
19 29
19 33
19 34
19 35
19 38
19 39
19 40
19 42
19 43
19 44
19 47
20 21
20 26
20 29
20 30
20 32
20 34
20 37
20 38
20 39
20 40
20 41
20 42
20 43
20 44
20 45
20 46
20 48
21 22
21 24
21 25
21 26
21 28
21 29
21 31
21 34
21 35
21 36
21 37
21 38
21 39
21 41
21 42
21 44
21 47
21 48
22 23
22 25
22 26
22 27
22 28
22 37
22 39
22 40
22 43
22 44
22 48
22 49
23 25
23 27
23 29
23 31
23 32
23 33
23 34
23 35
23 38
23 40
23 41
23 42
23 44
23 48
23 49
24 25
24 28
24 29
24 31
24 32
24 33
24 37
24 39
24 40
24 41
24 42
24 43
24 44
24 45
24 46
24 48
24 49
25 27
25 28
25 29
25 30
25 31
25 33
25 37
25 40
25 43
25 44
25 48
25 49
26 27
26 29
26 30
26 31
26 32
26 33
26 34
26 36
26 38
26 42
26 43
26 45
26 46
26 47
26 49
27 28
27 30
27 31
27 32
27 33
27 36
27 37
27 38
27 39
27 42
27 43
27 44
27 46
27 47
27 49
28 30
28 31
28 32
28 33
28 34
28 36
28 37
28 39
28 41
28 43
28 44
28 45
28 46
28 47
28 48
28 49
29 32
29 33
29 34
29 35
29 36
29 37
29 38
29 39
29 40
29 43
29 44
29 45
29 46
29 48
29 49
30 31
30 32
30 33
30 34
30 35
30 40
30 42
30 44
30 48
30 49
31 38
31 39
31 40
31 41
31 43
31 47
31 49
32 34
32 35
32 37
32 38
32 39
32 43
32 45
32 46
32 48
33 36
33 38
33 40
33 42
33 43
33 46
33 47
33 48
34 35
34 36
34 39
34 41
34 45
34 46
34 47
34 48
35 37
35 38
35 39
35 41
35 42
35 44
35 45
35 47
36 37
36 39
36 42
36 46
36 47
36 48
37 39
37 40
37 44
37 45
37 46
37 47
38 41
38 42
38 43
38 45
38 46
38 48
38 49
39 43
39 44
39 45
39 47
39 49
40 42
40 44
40 45
40 47
41 42
41 43
41 44
41 45
41 47
41 49
42 46
42 47
42 49
43 44
43 46
43 49
44 45
44 46
44 47
45 47
46 47
46 48
46 49
12 8
34 15
25 35
36 29
28 22
19 17
9 40
30 2
13 48
20 32
5 47
21 3
24 31
37 7
33 10
6 27
44 1
38 42
0 46
26 4
43 18
23 11
41 49
14 16
39 45
